140
100000
39207
14554
19733
25142
12862
6499
48141
49078
9171
21663
3636
48709
567
17322
18101
33008
8742
31688
34953
14244
18457
28900
30065
11547
47830
24929
22037
2748
29632
26569
2275
5850
24583
31785
49754
9481
26930
11784
4334
26971
26
25179
4251
15974
13152
16656
35447
19203
24399
42488
9804
47664
41978
28626
49665
9188
19044
22652
23953
15225
37690
2339
14866
40946
45014
12954
17296
4731
29332
41738
14098
43154
7504
1690
12411
19816
36287
14455
14692
23431
16352
27432
16656
13661
44368
87
32523
22956
25001
36069
30343
47743
6770
26379
30943
430
15012
12439
32716
6065
31439
29377
10020
35360
10345
47328
35332
1003
14727
31577
16
32916
2409
22198
14352
2672
17416
27512
1240
884
20462
1899
18126
35638
5670
22115
13255
27610
17827
33820
23787
7872
25686
24543
31945
40057
6372
3558
10065
25126
